SPARKNaCl/why3-cvc5/sparknacl-utils.adb_116_13_assert4_1.smt2
;; produced by cvc5.drv ;;
(set-logic ALL)
(set-info :smt-lib-version 2.6)
;;; generated by SMT-LIB2 driver
;;; SMT-LIB2 driver: bit-vectors, common part
;;; SMT-LIB2: integer arithmetic
;; "pow2"
(declare-fun pow2 (Int) Int)

(declare-const two_power_size_minus_one Int)

;; "two_power_size_minus_one_val"
(assert (= two_power_size_minus_one (pow2 (- 16 1))))

;; "min"
(define-fun min ((x Int) (y Int)) Int
  (ite (<= x y) x y))

;; "max"
(define-fun max ((x Int) (y Int)) Int
  (ite (<= x y) y x))

;; "Min_r"
(assert (forall ((x Int) (y Int)) (=> (<= y x) (= (min x y) y))))

;; "Max_l"
(assert (forall ((x Int) (y Int)) (=> (<= y x) (= (max x y) x))))

;; "Min_comm"
(assert (forall ((x Int) (y Int)) (= (min x y) (min y x))))

;; "Max_comm"
(assert (forall ((x Int) (y Int)) (= (max x y) (max y x))))

;; "Min_assoc"
(assert
  (forall ((x Int) (y Int) (z Int)) (= (min (min x y) z) (min x (min y z)))))

;; "Max_assoc"
(assert
  (forall ((x Int) (y Int) (z Int)) (= (max (max x y) z) (max x (max y z)))))

(declare-sort gf16_normal_limb 0)

;; "to_rep"
(declare-fun to_rep (gf16_normal_limb) (_ BitVec 16))

;; "of_rep"
(declare-fun of_rep ((_ BitVec 16)) gf16_normal_limb)

;; "inversion_axiom"
(assert
  (forall ((x gf16_normal_limb))
    (! (= (of_rep (to_rep x)) x) :pattern ((to_rep x)) )))

;; "range_axiom"
(assert true)

;; "coerce_axiom"
(assert
  (forall ((x (_ BitVec 16)))
    (! (= (to_rep (of_rep x)) x) :pattern ((to_rep (of_rep x))) )))

(declare-sort map1 0)

;; "has_bounds"
(declare-fun has_bounds (map1
  Int
  Int) Bool)

;; "get"
(declare-fun get (map1
  Int) gf16_normal_limb)

(declare-const swap Bool)

;; Goal "def'vc"
;; File "sparknacl-utils.ads", line 44, characters 0-0
(assert
  (not
  (forall ((p map1) (q map1))
    (=>
      (has_bounds p 0 15)
      (=>
        (has_bounds q 0 15)
        (forall ((c (_ BitVec 16)))
          (=>
            (= c (bvmul #xFFFF ((_ int2bv 16) (ite swap 1 0))))
            (forall ((i Int))
              (=>
                (= i 0)
                (=>
                  (= (and (ite (<= 0 i) true false) (ite (<= i 15)
                                                      true
                                                      false)) true)
                  (forall ((o (_ BitVec 16)))
                    (=>
                      (= (to_rep (get q i)) o)
                      (forall ((o1 (_ BitVec 16)))
                        (=>
                          (= (to_rep (get p i)) o1)
                          (forall ((t (_ BitVec 16)))
                            (=>
                              (= t (bvand c (bvxor o1 o)))
                              (=> (not (= swap true)) (= t #x0000))))))))))))))))))

(check-sat)
